(declare-fun v11 () (_ BitVec 1))
(declare-fun bvlambda_3_ () (_ BitVec 1))
(declare-fun bvlambda_9_ () (_ BitVec 1))
(declare-fun bvlambda_10_ () (_ BitVec 5))
(declare-fun bvlambda_11_ () (_ BitVec 4))
(declare-fun bvlambda_12_ () (_ BitVec 2))
(declare-fun bvlambda_21_ () (_ BitVec 6))
(declare-fun bvlambda_26_ () (_ BitVec 1))
(declare-fun bvlambda_28_ () (_ BitVec 1))
(declare-fun bvlambda_29_ () (_ BitVec 2))
(declare-fun bvlambda_36_ () (_ BitVec 1))
(declare-fun bvlambda_37_ () (_ BitVec 5))
(declare-fun a71 () (Array (_ BitVec 6) (_ BitVec 2)))
(declare-fun a72 () (Array (_ BitVec 1) (_ BitVec 6)))
(assert
(let (($e1 (_ bv0 1)))
(let (($e9 (_ bv0 4)))
(let (($e12 (_ bv0 6)))
(let (($e17 (_ bv0 3)))
(let (($e18 (_ bv0 13)))
(let (($e24 (_ bv0 15)))
(let (($e80 (concat bvlambda_36_ bvlambda_37_)))
(let (($e81 (store a72 bvlambda_26_ $e80)))
(let (($e82 (select $e81 v11)))
(let (($e84 (concat $e17        bvlambda_28_ )))
(let (($e85 (concat $e84        bvlambda_29_ )))
(let (($e86 (store a72 $e1 bvlambda_21_)))
(let (($e87 (store $e86 bvlambda_3_ $e85)))
(let (($e92                            #b0 ))
(let (($e93 (concat bvlambda_9_ bvlambda_10_)))
(let (($e94 (concat $e93 bvlambda_11_)))
(let (($e95 (concat $e94 bvlambda_12_)))
(let (($e108                          $e18       ))
(let (($e109 (       bvnot $e108               )))
(let (($e114 ((_ extract 11 0) $e109)))
(let (($e115      (bvult (bvnot $e114) $e95)         ))
(let (($e116        $e115       ))
(let (($e117                             $e116  ))
(let (($e118        $e117      ))
(let (($e145        $e87                            ))
(let (($e169                     $e118  ))
(let (($e206                      $e169 ))
(let (($e208 (select a71 $e12)))
(let (($e210 (concat        $e9  $e208)))
(let (($e212                    $e210       ))
(let (($e213      (bvult $e212 $e82)         ))
(let (($e214 (concat $e24 $e213)))
(let (($e216                          $e214 ))
(let (($e238                                 #b0 ))
(let (($e239        $e238       ))
(let (($e240 (concat $e24 $e239)))
(let (($e245                          $e240 ))
(let (($e246      (bvult $e245 $e216)         ))
(let (($e247        $e246               ))
(let (($e248 (bvand $e247 $e206)))
(let (($e249 (select $e145 (bvnot $e92))))
(let (($e291                      (bvnot $e248) ))
(let (($e435                      $e291 ))
(let (($e463               $e435          ))
(let (($e464      (= $e12 $e249)         ))
(let (($e524                     $e464  ))
             (bvand $e524 $e463)
                      )                                                           ))                           )                                                                                                                                               )                                         )))))    )))                     ) ))) ) ) )                                    )                       )                          )))))    ))            ))))    )))) )))          )     ))    )  )       ))
